Route #1: 43 23 22 50 38 9 12 5 40
Route #2: 46 8 28 14 44 51 17 10 18
Route #3: 19 7 15 42 47 39 4 26 21
Route #4: 41 45 29 37 24 6 53
Route #5: 25 1 52 27 16 35 48
Route #6: 32 33 11 55 20 31 30 54 34 2
Route #7: 36 49 13 3
Cost 722